\ENCODING=ISO-8859-1
\Problem name: ilog.cplex

Maximize
 obj: 909 x(0)#0 + 366 x(1)#1 + 893 x(2)#2 + 696 x(3)#3 + 568 x(4)#4
      + 1054 x(5)#5 + 939 x(6)#6 + 808 x(7)#7 + 690 x(8)#8 + 753 x(9)#9
      + 873 x(10)#10 + 675 x(11)#11 + 842 x(12)#12 + 1013 x(13)#13
      + 837 x(14)#14 + 794 x(15)#15 + 676 x(16)#16 + 1000 x(17)#17
      + 659 x(18)#18 + 728 x(19)#19 + 639 x(20)#20 + 521 x(21)#21
      + 935 x(22)#22 + 1030 x(23)#23 + 884 x(24)#24 + 722 x(25)#25
      + 505 x(26)#26 + 664 x(27)#27 + 638 x(28)#28 + 870 x(29)#29
      + 548 x(30)#30 + 497 x(31)#31 + 525 x(32)#32 + 991 x(33)#33
      + 745 x(34)#34 + 1012 x(35)#35 + 654 x(36)#36 + 496 x(37)#37
      + 944 x(38)#38 + 604 x(39)#39 + 506 x(40)#40 + 567 x(41)#41
      + 442 x(42)#42 + 740 x(43)#43 + 647 x(44)#44 + 727 x(45)#45
      + 636 x(46)#46 + 516 x(47)#47 + 834 x(48)#48 + 522 x(49)#49
      + 793 x(50)#50 + 788 x(51)#51 + 796 x(52)#52 + 501 x(53)#53
      + 566 x(54)#54 + 838 x(55)#55 + 574 x(56)#56 + 555 x(57)#57
      + 565 x(58)#58 + 479 x(59)#59 + 620 x(60)#60 + 563 x(61)#61
      + 845 x(62)#62 + 632 x(63)#63 + 731 x(64)#64 + 439 x(65)#65
      + 878 x(66)#66 + 622 x(67)#67 + 601 x(68)#68 + 696 x(69)#69
      + 568 x(70)#70 + 898 x(71)#71 + 865 x(72)#72 + 528 x(73)#73
      + 894 x(74)#74 + 404 x(75)#75 + 871 x(76)#76 + 698 x(77)#77
      + 724 x(78)#78 + 665 x(79)#79 + 869 x(80)#80 + 581 x(81)#81
      + 547 x(82)#82 + 591 x(83)#83 + 580 x(84)#84 + 545 x(85)#85
      + 589 x(86)#86 + 831 x(87)#87 + 1020 x(88)#88 + 987 x(89)#89
      + 835 x(90)#90 + 780 x(91)#91 + 710 x(92)#92 + 505 x(93)#93
      + 736 x(94)#94 + 722 x(95)#95 + 832 x(96)#96 + 654 x(97)#97
      + 503 x(98)#98 + 464 x(99)#99
Subject To
 c1:  622 x(0)#0 + 349 x(1)#1 + 416 x(2)#2 + 612 x(3)#3 + 334 x(4)#4
      + 747 x(5)#5 + 114 x(6)#6 + 516 x(7)#7 + 347 x(8)#8 + 666 x(9)#9
      + 227 x(10)#10 + 513 x(11)#11 + 940 x(12)#12 + 957 x(13)#13 + 92 x(14)#14
      + 655 x(15)#15 + 259 x(16)#16 + 183 x(17)#17 + 893 x(18)#18
      + 918 x(19)#19 + 131 x(20)#20 + 157 x(21)#21 + 214 x(22)#22
      + 228 x(23)#23 + 908 x(24)#24 + 8 x(25)#25 + 26 x(26)#26 + 735 x(27)#27
      + 446 x(28)#28 + 947 x(29)#29 + 978 x(30)#30 + 55 x(31)#31 + 559 x(32)#32
      + 833 x(33)#33 + 970 x(34)#34 + 949 x(35)#35 + 133 x(36)#36
      + 363 x(37)#37 + 261 x(38)#38 + 926 x(39)#39 + 866 x(40)#40
      + 956 x(41)#41 + 522 x(42)#42 + 77 x(43)#43 + 578 x(44)#44 + 61 x(45)#45
      + 884 x(46)#46 + 556 x(47)#47 + 598 x(48)#48 + 487 x(49)#49
      + 242 x(50)#50 + 777 x(51)#51 + 406 x(52)#52 + 725 x(53)#53
      + 987 x(54)#54 + 369 x(55)#55 + 496 x(56)#56 + 477 x(57)#57
      + 375 x(58)#58 + 109 x(59)#59 + 251 x(60)#60 + 58 x(61)#61 + 14 x(62)#62
      + 790 x(63)#63 + 114 x(64)#64 + 19 x(65)#65 + 737 x(66)#66 + 329 x(67)#67
      + 593 x(68)#68 + 609 x(69)#69 + 594 x(70)#70 + 379 x(71)#71
      + 105 x(72)#72 + 635 x(73)#73 + 748 x(74)#74 + 819 x(75)#75
      + 948 x(76)#76 + 961 x(77)#77 + 794 x(78)#78 + 91 x(79)#79 + 943 x(80)#80
      + 810 x(81)#81 + 361 x(82)#82 + 60 x(83)#83 + 202 x(84)#84 + 134 x(85)#85
      + 117 x(86)#86 + 284 x(87)#87 + 784 x(88)#88 + 955 x(89)#89
      + 132 x(90)#90 + 833 x(91)#91 + 311 x(92)#92 + 656 x(93)#93
      + 788 x(94)#94 + 98 x(95)#95 + 695 x(96)#96 + 892 x(97)#97 + 726 x(98)#98
      + 161 x(99)#99 <= 37699
 c2:  819 x(0)#0 + 236 x(1)#1 + 407 x(2)#2 + 891 x(3)#3 + 161 x(4)#4
      + 406 x(5)#5 + 866 x(6)#6 + 3 x(7)#7 + 824 x(8)#8 + 872 x(9)#9
      + 359 x(10)#10 + 266 x(11)#11 + 814 x(12)#12 + 687 x(13)#13
      + 738 x(14)#14 + 392 x(15)#15 + 239 x(16)#16 + 873 x(17)#17
      + 187 x(18)#18 + 550 x(19)#19 + 757 x(20)#20 + 457 x(21)#21
      + 889 x(22)#22 + 931 x(23)#23 + 170 x(24)#24 + 6 x(25)#25 + 582 x(26)#26
      + 626 x(27)#27 + 398 x(28)#28 + 379 x(29)#29 + 744 x(30)#30
      + 286 x(31)#31 + 449 x(32)#32 + 628 x(33)#33 + 109 x(34)#34 + 61 x(35)#35
      + 744 x(36)#36 + 61 x(37)#37 + 100 x(38)#38 + 485 x(39)#39 + 520 x(40)#40
      + 874 x(41)#41 + 299 x(42)#42 + 602 x(43)#43 + 651 x(44)#44
      + 278 x(45)#45 + 660 x(46)#46 + 755 x(47)#47 + 381 x(48)#48
      + 989 x(49)#49 + 735 x(50)#50 + 415 x(51)#51 + 158 x(52)#52 + 16 x(53)#53
      + 38 x(54)#54 + 555 x(55)#55 + 981 x(56)#56 + 772 x(57)#57 + 482 x(58)#58
      + 1000 x(59)#59 + 8 x(60)#60 + 264 x(61)#61 + 24 x(62)#62 + 62 x(63)#63
      + 733 x(64)#64 + 106 x(65)#65 + 60 x(66)#66 + 627 x(67)#67 + 792 x(68)#68
      + 641 x(69)#69 + 241 x(70)#70 + 945 x(71)#71 + 723 x(72)#72
      + 216 x(73)#73 + 910 x(74)#74 + 59 x(75)#75 + 583 x(76)#76 + 224 x(77)#77
      + 680 x(78)#78 + 958 x(79)#79 + 493 x(80)#80 + 539 x(81)#81
      + 871 x(82)#82 + 407 x(83)#83 + 882 x(84)#84 + 447 x(85)#85
      + 698 x(86)#86 + 752 x(87)#87 + 430 x(88)#88 + 784 x(89)#89
      + 761 x(90)#90 + 282 x(91)#91 + 764 x(92)#92 + 117 x(93)#93
      + 366 x(94)#94 + 282 x(95)#95 + 223 x(96)#96 + 389 x(97)#97
      + 195 x(98)#98 + 67 x(99)#99 <= 36914
 c3:  696 x(0)#0 + 506 x(1)#1 + 506 x(2)#2 + 495 x(3)#3 + 889 x(4)#4
      + 314 x(5)#5 + 135 x(6)#6 + 109 x(7)#7 + 961 x(8)#8 + 717 x(9)#9
      + 542 x(10)#10 + 937 x(11)#11 + 814 x(12)#12 + 442 x(13)#13
      + 123 x(14)#14 + 726 x(15)#15 + 283 x(16)#16 + 887 x(17)#17
      + 254 x(18)#18 + 92 x(19)#19 + 743 x(20)#20 + 812 x(21)#21 + 570 x(22)#22
      + 818 x(23)#23 + 361 x(24)#24 + 751 x(25)#25 + 834 x(26)#26 + 26 x(27)#27
      + 773 x(28)#28 + 598 x(29)#29 + 331 x(30)#30 + 143 x(31)#31
      + 536 x(32)#32 + 799 x(33)#33 + 911 x(34)#34 + 999 x(35)#35
      + 315 x(36)#36 + 287 x(37)#37 + 335 x(38)#38 + 200 x(39)#39 + 57 x(40)#40
      + 267 x(41)#41 + 325 x(42)#42 + 988 x(43)#43 + 583 x(44)#44
      + 786 x(45)#45 + 132 x(46)#46 + 620 x(47)#47 + 169 x(48)#48
      + 719 x(49)#49 + 585 x(50)#50 + 574 x(51)#51 + 287 x(52)#52
      + 256 x(53)#53 + 943 x(54)#54 + 158 x(55)#55 + 186 x(56)#56 + 72 x(57)#57
      + 451 x(58)#58 + 270 x(59)#59 + 616 x(60)#60 + 556 x(61)#61
      + 467 x(62)#62 + 517 x(63)#63 + 312 x(64)#64 + 912 x(65)#65
      + 503 x(66)#66 + 753 x(67)#67 + 367 x(68)#68 + 583 x(69)#69
      + 445 x(70)#70 + 452 x(71)#71 + 599 x(72)#72 + 636 x(73)#73
      + 838 x(74)#74 + 231 x(75)#75 + 955 x(76)#76 + 828 x(77)#77
      + 186 x(78)#78 + 9 x(79)#79 + 266 x(80)#80 + 648 x(81)#81 + 604 x(82)#82
      + 486 x(83)#83 + 966 x(84)#84 + 451 x(85)#85 + 254 x(86)#86 + 64 x(87)#87
      + 540 x(88)#88 + 999 x(89)#89 + 274 x(90)#90 + 814 x(91)#91
      + 217 x(92)#92 + 720 x(93)#93 + 413 x(94)#94 + 367 x(95)#95 + 17 x(96)#96
      + 326 x(97)#97 + 291 x(98)#98 + 108 x(99)#99 <= 37191
 c4:  255 x(0)#0 + 659 x(1)#1 + 354 x(2)#2 + 33 x(3)#3 + 771 x(4)#4
      + 904 x(5)#5 + 617 x(6)#6 + 914 x(7)#7 + 311 x(8)#8 + 759 x(9)#9
      + 453 x(10)#10 + 557 x(11)#11 + 296 x(12)#12 + 161 x(13)#13
      + 719 x(14)#14 + 11 x(15)#15 + 220 x(16)#16 + 901 x(17)#17 + 831 x(18)#18
      + 270 x(19)#19 + 720 x(20)#20 + 237 x(21)#21 + 391 x(22)#22
      + 818 x(23)#23 + 951 x(24)#24 + 481 x(25)#25 + 159 x(26)#26
      + 611 x(27)#27 + 562 x(28)#28 + 536 x(29)#29 + 315 x(30)#30
      + 546 x(31)#31 + 954 x(32)#32 + 834 x(33)#33 + 758 x(34)#34
      + 550 x(35)#35 + 678 x(36)#36 + 166 x(37)#37 + 998 x(38)#38
      + 108 x(39)#39 + 180 x(40)#40 + 636 x(41)#41 + 212 x(42)#42
      + 136 x(43)#43 + 362 x(44)#44 + 762 x(45)#45 + 834 x(46)#46
      + 159 x(47)#47 + 634 x(48)#48 + 511 x(49)#49 + 347 x(50)#50 + 25 x(51)#51
      + 175 x(52)#52 + 41 x(53)#53 + 849 x(54)#54 + 801 x(55)#55 + 194 x(56)#56
      + 864 x(57)#57 + 345 x(58)#58 + 610 x(59)#59 + 547 x(60)#60
      + 590 x(61)#61 + 879 x(62)#62 + 601 x(63)#63 + 816 x(64)#64
      + 829 x(65)#65 + 305 x(66)#66 + 589 x(67)#67 + 878 x(68)#68
      + 303 x(69)#69 + 812 x(70)#70 + 247 x(71)#71 + 859 x(72)#72
      + 986 x(73)#73 + 161 x(74)#74 + 361 x(75)#75 + 328 x(76)#76
      + 276 x(77)#77 + 652 x(78)#78 + 296 x(79)#79 + 791 x(80)#80
      + 353 x(81)#81 + 586 x(82)#82 + 785 x(83)#83 + 576 x(84)#84
      + 684 x(85)#85 + 265 x(86)#86 + 109 x(87)#87 + 930 x(88)#88
      + 827 x(89)#89 + 189 x(90)#90 + 468 x(91)#91 + 28 x(92)#92 + 321 x(93)#93
      + 14 x(94)#94 + 243 x(95)#95 + 497 x(96)#96 + 299 x(97)#97 + 450 x(98)#98
      + 709 x(99)#99 <= 37864
 c5:  157 x(0)#0 + 281 x(1)#1 + 387 x(2)#2 + 890 x(3)#3 + 715 x(4)#4
      + 970 x(5)#5 + 105 x(6)#6 + 594 x(7)#7 + 442 x(8)#8 + 542 x(9)#9
      + 70 x(10)#10 + 920 x(11)#11 + 883 x(12)#12 + 665 x(13)#13 + 748 x(14)#14
      + 446 x(15)#15 + 515 x(16)#16 + 757 x(17)#17 + 447 x(18)#18
      + 981 x(19)#19 + 216 x(20)#20 + 501 x(21)#21 + 321 x(22)#22
      + 265 x(23)#23 + 749 x(24)#24 + 577 x(25)#25 + 553 x(26)#26
      + 958 x(27)#27 + 190 x(28)#28 + 836 x(29)#29 + 370 x(30)#30
      + 213 x(31)#31 + 450 x(32)#32 + 783 x(33)#33 + 317 x(34)#34
      + 421 x(35)#35 + 492 x(36)#36 + 915 x(37)#37 + 735 x(38)#38
      + 401 x(39)#39 + 176 x(40)#40 + 721 x(41)#41 + 784 x(42)#42
      + 813 x(43)#43 + 174 x(44)#44 + 90 x(45)#45 + 912 x(46)#46 + 952 x(47)#47
      + 808 x(48)#48 + 637 x(49)#49 + 2 x(50)#50 + 712 x(51)#51 + 410 x(52)#52
      + 180 x(53)#53 + 22 x(54)#54 + 57 x(55)#55 + 678 x(56)#56 + 61 x(57)#57
      + 55 x(58)#58 + 131 x(59)#59 + 693 x(60)#60 + 665 x(61)#61 + 817 x(62)#62
      + 847 x(63)#63 + 918 x(64)#64 + 111 x(65)#65 + 688 x(66)#66
      + 583 x(67)#67 + 934 x(68)#68 + 550 x(69)#69 + 153 x(70)#70
      + 560 x(71)#71 + 227 x(72)#72 + 452 x(73)#73 + 753 x(74)#74
      + 424 x(75)#75 + 464 x(76)#76 + 201 x(77)#77 + 271 x(78)#78
      + 919 x(79)#79 + 191 x(80)#80 + 715 x(81)#81 + 35 x(82)#82 + 728 x(83)#83
      + 178 x(84)#84 + 560 x(85)#85 + 683 x(86)#86 + 644 x(87)#87
      + 168 x(88)#88 + 421 x(89)#89 + 345 x(90)#90 + 971 x(91)#91
      + 112 x(92)#92 + 177 x(93)#93 + 422 x(94)#94 + 633 x(95)#95
      + 639 x(96)#96 + 281 x(97)#97 + 389 x(98)#98 + 714 x(99)#99 <= 37792
 c6:  162 x(0)#0 + 538 x(1)#1 + 40 x(2)#2 + 357 x(3)#3 + 674 x(4)#4
      + 232 x(5)#5 + 666 x(6)#6 + 257 x(7)#7 + 929 x(8)#8 + 744 x(9)#9
      + 433 x(10)#10 + 939 x(11)#11 + 625 x(12)#12 + 935 x(13)#13
      + 914 x(14)#14 + 811 x(15)#15 + 559 x(16)#16 + 738 x(17)#17
      + 809 x(18)#18 + 498 x(19)#19 + 562 x(20)#20 + 162 x(21)#21
      + 743 x(22)#22 + 580 x(23)#23 + 390 x(24)#24 + 933 x(25)#25
      + 234 x(26)#26 + 37 x(27)#27 + 919 x(28)#28 + 165 x(29)#29 + 36 x(30)#30
      + 508 x(31)#31 + 62 x(32)#32 + 711 x(33)#33 + 259 x(34)#34 + 522 x(35)#35
      + 588 x(36)#36 + 804 x(37)#37 + 11 x(38)#38 + 481 x(39)#39 + 514 x(40)#40
      + 327 x(41)#41 + 349 x(42)#42 + 884 x(43)#43 + 220 x(44)#44
      + 794 x(45)#45 + 502 x(46)#46 + 571 x(47)#47 + 361 x(48)#48
      + 513 x(49)#49 + 88 x(50)#50 + 139 x(51)#51 + 428 x(52)#52 + 803 x(53)#53
      + 369 x(54)#54 + 119 x(55)#55 + 776 x(56)#56 + 660 x(57)#57
      + 645 x(58)#58 + 265 x(59)#59 + 981 x(60)#60 + 117 x(61)#61
      + 972 x(62)#62 + 254 x(63)#63 + 900 x(64)#64 + 302 x(65)#65
      + 787 x(66)#66 + 293 x(67)#67 + 732 x(68)#68 + 232 x(69)#69
      + 236 x(70)#70 + 782 x(71)#71 + 2 x(72)#72 + 29 x(73)#73 + 621 x(74)#74
      + 530 x(75)#75 + 850 x(76)#76 + 804 x(77)#77 + 928 x(78)#78
      + 974 x(79)#79 + 233 x(80)#80 + 317 x(81)#81 + 320 x(82)#82
      + 759 x(83)#83 + 950 x(84)#84 + 185 x(85)#85 + 302 x(86)#86
      + 876 x(87)#87 + 820 x(88)#88 + 255 x(89)#89 + 463 x(90)#90
      + 966 x(91)#91 + 505 x(92)#92 + 806 x(93)#93 + 342 x(94)#94
      + 137 x(95)#95 + 475 x(96)#96 + 710 x(97)#97 + 480 x(98)#98
      + 351 x(99)#99 <= 38604
 c7:  783 x(0)#0 + 61 x(1)#1 + 820 x(2)#2 + 513 x(3)#3 + 249 x(4)#4
      + 562 x(5)#5 + 262 x(6)#6 + 933 x(7)#7 + 234 x(8)#8 + 27 x(9)#9
      + 352 x(10)#10 + 117 x(11)#11 + 893 x(12)#12 + 751 x(13)#13
      + 648 x(14)#14 + 61 x(15)#15 + 305 x(16)#16 + 627 x(17)#17 + 655 x(18)#18
      + 731 x(19)#19 + 684 x(20)#20 + 13 x(21)#21 + 375 x(22)#22 + 68 x(23)#23
      + 627 x(24)#24 + 458 x(25)#25 + 554 x(26)#26 + 627 x(27)#27
      + 891 x(28)#28 + 736 x(29)#29 + 74 x(30)#30 + 656 x(31)#31 + 414 x(32)#32
      + 458 x(33)#33 + 508 x(34)#34 + 850 x(35)#35 + 951 x(36)#36
      + 575 x(37)#37 + 635 x(38)#38 + 124 x(39)#39 + 157 x(40)#40 + 81 x(41)#41
      + 125 x(42)#42 + 152 x(43)#43 + 367 x(44)#44 + 351 x(45)#45
      + 401 x(46)#46 + 191 x(47)#47 + 123 x(48)#48 + 306 x(49)#49 + 36 x(50)#50
      + 924 x(51)#51 + 830 x(52)#52 + 399 x(53)#53 + 414 x(54)#54
      + 939 x(55)#55 + 171 x(56)#56 + 544 x(57)#57 + 743 x(58)#58
      + 325 x(59)#59 + 629 x(60)#60 + 115 x(61)#61 + 952 x(62)#62
      + 840 x(63)#63 + 682 x(64)#64 + 304 x(65)#65 + 539 x(66)#66
      + 561 x(67)#67 + 341 x(68)#68 + 115 x(69)#69 + 210 x(70)#70
      + 809 x(71)#71 + 249 x(72)#72 + 830 x(73)#73 + 169 x(74)#74
      + 360 x(75)#75 + 518 x(76)#76 + 284 x(77)#77 + 18 x(78)#78 + 572 x(79)#79
      + 726 x(80)#80 + 109 x(81)#81 + 316 x(82)#82 + 519 x(83)#83 + 28 x(84)#84
      + 812 x(85)#85 + 563 x(86)#86 + 923 x(87)#87 + 650 x(88)#88
      + 625 x(89)#89 + 310 x(90)#90 + 191 x(91)#91 + 935 x(92)#92
      + 984 x(93)#93 + 611 x(94)#94 + 47 x(95)#95 + 634 x(96)#96 + 566 x(97)#97
      + 418 x(98)#98 + 309 x(99)#99 <= 35111
 c8:  721 x(0)#0 + 631 x(1)#1 + 412 x(2)#2 + 970 x(3)#3 + 136 x(4)#4
      + 225 x(5)#5 + 666 x(6)#6 + 379 x(7)#7 + 50 x(8)#8 + 654 x(9)#9
      + 820 x(10)#10 + 531 x(11)#11 + 585 x(12)#12 + 548 x(13)#13
      + 400 x(14)#14 + 708 x(15)#15 + 118 x(16)#16 + 516 x(17)#17
      + 615 x(18)#18 + 108 x(19)#19 + 263 x(20)#20 + 741 x(21)#21
      + 687 x(22)#22 + 545 x(23)#23 + 899 x(24)#24 + 414 x(25)#25
      + 730 x(26)#26 + 861 x(27)#27 + 6 x(28)#28 + 461 x(29)#29 + 145 x(30)#30
      + 584 x(31)#31 + 5 x(32)#32 + 274 x(33)#33 + 240 x(34)#34 + 569 x(35)#35
      + 129 x(36)#36 + 467 x(37)#37 + 760 x(38)#38 + 442 x(39)#39
      + 668 x(40)#40 + 734 x(41)#41 + 775 x(42)#42 + 213 x(43)#43
      + 932 x(44)#44 + 848 x(45)#45 + 152 x(46)#46 + 42 x(47)#47 + 546 x(48)#48
      + 16 x(49)#49 + 546 x(50)#50 + 326 x(51)#51 + 434 x(52)#52 + 786 x(53)#53
      + 265 x(54)#54 + 763 x(55)#55 + 680 x(56)#56 + 109 x(57)#57 + 31 x(58)#58
      + 378 x(59)#59 + 222 x(60)#60 + 60 x(61)#61 + 752 x(62)#62 + 929 x(63)#63
      + 872 x(64)#64 + 61 x(65)#65 + 344 x(66)#66 + 4 x(67)#67 + 228 x(68)#68
      + 843 x(69)#69 + 860 x(70)#70 + 141 x(71)#71 + 218 x(72)#72
      + 195 x(73)#73 + 963 x(74)#74 + 131 x(75)#75 + 152 x(76)#76 + 88 x(77)#77
      + 467 x(78)#78 + 899 x(79)#79 + 298 x(80)#80 + 143 x(81)#81
      + 444 x(82)#82 + 313 x(83)#83 + 507 x(84)#84 + 907 x(85)#85 + 5 x(86)#86
      + 885 x(87)#87 + 278 x(88)#88 + 710 x(89)#89 + 952 x(90)#90
      + 902 x(91)#91 + 395 x(92)#92 + 379 x(93)#93 + 766 x(94)#94 + 88 x(95)#95
      + 378 x(96)#96 + 711 x(97)#97 + 17 x(98)#98 + 189 x(99)#99 <= 34466
 c9:  889 x(0)#0 + 121 x(1)#1 + 942 x(2)#2 + 124 x(3)#3 + 86 x(4)#4
      + 877 x(5)#5 + 111 x(6)#6 + 147 x(7)#7 + 83 x(8)#8 + 597 x(9)#9
      + 274 x(10)#10 + 782 x(11)#11 + 428 x(12)#12 + 202 x(13)#13 + 44 x(14)#14
      + 389 x(15)#15 + 282 x(16)#16 + 797 x(17)#17 + 59 x(18)#18 + 239 x(19)#19
      + 461 x(20)#20 + 24 x(21)#21 + 277 x(22)#22 + 481 x(23)#23 + 91 x(24)#24
      + 827 x(25)#25 + 444 x(26)#26 + 324 x(27)#27 + 347 x(28)#28
      + 344 x(29)#29 + 670 x(30)#30 + 474 x(31)#31 + 257 x(32)#32
      + 390 x(33)#33 + 406 x(34)#34 + 702 x(35)#35 + 727 x(36)#36 + 22 x(37)#37
      + 828 x(38)#38 + 726 x(39)#39 + 23 x(40)#40 + 486 x(41)#41 + 461 x(42)#42
      + 18 x(43)#43 + 834 x(44)#44 + 896 x(45)#45 + 427 x(46)#46 + 242 x(47)#47
      + 248 x(48)#48 + 402 x(49)#49 + 914 x(50)#50 + 817 x(51)#51
      + 606 x(52)#52 + 492 x(53)#53 + 440 x(54)#54 + 139 x(55)#55
      + 568 x(56)#56 + 756 x(57)#57 + 841 x(58)#58 + 263 x(59)#59
      + 212 x(60)#60 + 249 x(61)#61 + 589 x(62)#62 + 492 x(63)#63
      + 930 x(64)#64 + 289 x(65)#65 + 987 x(66)#66 + 13 x(67)#67 + 669 x(68)#68
      + 571 x(69)#69 + 602 x(70)#70 + 917 x(71)#71 + 955 x(72)#72
      + 188 x(73)#73 + 948 x(74)#74 + 297 x(75)#75 + 947 x(76)#76 + 98 x(77)#77
      + 624 x(78)#78 + 607 x(79)#79 + 347 x(80)#80 + 290 x(81)#81
      + 251 x(82)#82 + 667 x(83)#83 + 159 x(84)#84 + 489 x(85)#85
      + 215 x(86)#86 + 571 x(87)#87 + 537 x(88)#88 + 141 x(89)#89
      + 511 x(90)#90 + 191 x(91)#91 + 940 x(92)#92 + 113 x(93)#93
      + 479 x(94)#94 + 315 x(95)#95 + 662 x(96)#96 + 707 x(97)#97
      + 614 x(98)#98 + 552 x(99)#99 <= 34577
 c10: 512 x(0)#0 + 102 x(1)#1 + 800 x(2)#2 + 902 x(3)#3 + 319 x(4)#4
      + 918 x(5)#5 + 918 x(6)#6 + 433 x(7)#7 + 808 x(8)#8 + 79 x(9)#9
      + 477 x(10)#10 + 430 x(11)#11 + 213 x(12)#12 + 740 x(13)#13 + 14 x(14)#14
      + 196 x(15)#15 + 642 x(16)#16 + 328 x(17)#17 + 562 x(18)#18
      + 291 x(19)#19 + 166 x(20)#20 + 670 x(21)#21 + 268 x(22)#22
      + 686 x(23)#23 + 875 x(24)#24 + 793 x(25)#25 + 156 x(26)#26
      + 223 x(27)#27 + 732 x(28)#28 + 387 x(29)#29 + 15 x(30)#30 + 639 x(31)#31
      + 928 x(32)#32 + 590 x(33)#33 + 672 x(34)#34 + 682 x(35)#35
      + 707 x(36)#36 + 140 x(37)#37 + 820 x(38)#38 + 300 x(39)#39
      + 759 x(40)#40 + 279 x(41)#41 + 240 x(42)#42 + 862 x(43)#43
      + 933 x(44)#44 + 120 x(45)#45 + 947 x(46)#46 + 174 x(47)#47
      + 110 x(48)#48 + 184 x(49)#49 + 555 x(50)#50 + 714 x(51)#51
      + 776 x(52)#52 + 888 x(53)#53 + 888 x(54)#54 + 682 x(55)#55
      + 361 x(56)#56 + 80 x(57)#57 + 547 x(58)#58 + 8 x(59)#59 + 268 x(60)#60
      + 785 x(61)#61 + 645 x(62)#62 + 721 x(63)#63 + 662 x(64)#64
      + 716 x(65)#65 + 879 x(66)#66 + 161 x(67)#67 + 472 x(68)#68
      + 639 x(69)#69 + 829 x(70)#70 + 664 x(71)#71 + 450 x(72)#72
      + 307 x(73)#73 + 817 x(74)#74 + 798 x(75)#75 + 516 x(76)#76
      + 279 x(77)#77 + 521 x(78)#78 + 727 x(79)#79 + 459 x(80)#80
      + 706 x(81)#81 + 376 x(82)#82 + 767 x(83)#83 + 909 x(84)#84
      + 586 x(85)#85 + 485 x(86)#86 + 476 x(87)#87 + 118 x(88)#88
      + 167 x(89)#89 + 997 x(90)#90 + 438 x(91)#91 + 694 x(92)#92
      + 446 x(93)#93 + 761 x(94)#94 + 840 x(95)#95 + 761 x(96)#96
      + 559 x(97)#97 + 664 x(98)#98 + 755 x(99)#99 <= 40545
Bounds
 0 <= x(0)#0 <= 1
 0 <= x(1)#1 <= 1
 0 <= x(2)#2 <= 1
 0 <= x(3)#3 <= 1
 0 <= x(4)#4 <= 1
 0 <= x(5)#5 <= 1
 0 <= x(6)#6 <= 1
 0 <= x(7)#7 <= 1
 0 <= x(8)#8 <= 1
 0 <= x(9)#9 <= 1
 0 <= x(10)#10 <= 1
 0 <= x(11)#11 <= 1
 0 <= x(12)#12 <= 1
 0 <= x(13)#13 <= 1
 0 <= x(14)#14 <= 1
 0 <= x(15)#15 <= 1
 0 <= x(16)#16 <= 1
 0 <= x(17)#17 <= 1
 0 <= x(18)#18 <= 1
 0 <= x(19)#19 <= 1
 0 <= x(20)#20 <= 1
 0 <= x(21)#21 <= 1
 0 <= x(22)#22 <= 1
 0 <= x(23)#23 <= 1
 0 <= x(24)#24 <= 1
 0 <= x(25)#25 <= 1
 0 <= x(26)#26 <= 1
 0 <= x(27)#27 <= 1
 0 <= x(28)#28 <= 1
 0 <= x(29)#29 <= 1
 0 <= x(30)#30 <= 1
 0 <= x(31)#31 <= 1
 0 <= x(32)#32 <= 1
 0 <= x(33)#33 <= 1
 0 <= x(34)#34 <= 1
 0 <= x(35)#35 <= 1
 0 <= x(36)#36 <= 1
 0 <= x(37)#37 <= 1
 0 <= x(38)#38 <= 1
 0 <= x(39)#39 <= 1
 0 <= x(40)#40 <= 1
 0 <= x(41)#41 <= 1
 0 <= x(42)#42 <= 1
 0 <= x(43)#43 <= 1
 0 <= x(44)#44 <= 1
 0 <= x(45)#45 <= 1
 0 <= x(46)#46 <= 1
 0 <= x(47)#47 <= 1
 0 <= x(48)#48 <= 1
 0 <= x(49)#49 <= 1
 0 <= x(50)#50 <= 1
 0 <= x(51)#51 <= 1
 0 <= x(52)#52 <= 1
 0 <= x(53)#53 <= 1
 0 <= x(54)#54 <= 1
 0 <= x(55)#55 <= 1
 0 <= x(56)#56 <= 1
 0 <= x(57)#57 <= 1
 0 <= x(58)#58 <= 1
 0 <= x(59)#59 <= 1
 0 <= x(60)#60 <= 1
 0 <= x(61)#61 <= 1
 0 <= x(62)#62 <= 1
 0 <= x(63)#63 <= 1
 0 <= x(64)#64 <= 1
 0 <= x(65)#65 <= 1
 0 <= x(66)#66 <= 1
 0 <= x(67)#67 <= 1
 0 <= x(68)#68 <= 1
 0 <= x(69)#69 <= 1
 0 <= x(70)#70 <= 1
 0 <= x(71)#71 <= 1
 0 <= x(72)#72 <= 1
 0 <= x(73)#73 <= 1
 0 <= x(74)#74 <= 1
 0 <= x(75)#75 <= 1
 0 <= x(76)#76 <= 1
 0 <= x(77)#77 <= 1
 0 <= x(78)#78 <= 1
 0 <= x(79)#79 <= 1
 0 <= x(80)#80 <= 1
 0 <= x(81)#81 <= 1
 0 <= x(82)#82 <= 1
 0 <= x(83)#83 <= 1
 0 <= x(84)#84 <= 1
 0 <= x(85)#85 <= 1
 0 <= x(86)#86 <= 1
 0 <= x(87)#87 <= 1
 0 <= x(88)#88 <= 1
 0 <= x(89)#89 <= 1
 0 <= x(90)#90 <= 1
 0 <= x(91)#91 <= 1
 0 <= x(92)#92 <= 1
 0 <= x(93)#93 <= 1
 0 <= x(94)#94 <= 1
 0 <= x(95)#95 <= 1
 0 <= x(96)#96 <= 1
 0 <= x(97)#97 <= 1
 0 <= x(98)#98 <= 1
 0 <= x(99)#99 <= 1
Generals
 x(0)#0  x(1)#1  x(2)#2  x(3)#3  x(4)#4  x(5)#5  x(6)#6  x(7)#7  x(8)#8 
 x(9)#9  x(10)#10  x(11)#11  x(12)#12  x(13)#13  x(14)#14  x(15)#15  x(16)#16 
 x(17)#17  x(18)#18  x(19)#19  x(20)#20  x(21)#21  x(22)#22  x(23)#23 
 x(24)#24  x(25)#25  x(26)#26  x(27)#27  x(28)#28  x(29)#29  x(30)#30 
 x(31)#31  x(32)#32  x(33)#33  x(34)#34  x(35)#35  x(36)#36  x(37)#37 
 x(38)#38  x(39)#39  x(40)#40  x(41)#41  x(42)#42  x(43)#43  x(44)#44 
 x(45)#45  x(46)#46  x(47)#47  x(48)#48  x(49)#49  x(50)#50  x(51)#51 
 x(52)#52  x(53)#53  x(54)#54  x(55)#55  x(56)#56  x(57)#57  x(58)#58 
 x(59)#59  x(60)#60  x(61)#61  x(62)#62  x(63)#63  x(64)#64  x(65)#65 
 x(66)#66  x(67)#67  x(68)#68  x(69)#69  x(70)#70  x(71)#71  x(72)#72 
 x(73)#73  x(74)#74  x(75)#75  x(76)#76  x(77)#77  x(78)#78  x(79)#79 
 x(80)#80  x(81)#81  x(82)#82  x(83)#83  x(84)#84  x(85)#85  x(86)#86 
 x(87)#87  x(88)#88  x(89)#89  x(90)#90  x(91)#91  x(92)#92  x(93)#93 
 x(94)#94  x(95)#95  x(96)#96  x(97)#97  x(98)#98  x(99)#99 
End
